11
-1 46 17 24 4 22 59 53 39 90 16 
81 -1 29 42 58 96 63 46 66 48 48 
58 18 -1 72 5 71 80 10 5 23 57 
77 2 43 -1 80 59 73 57 67 6 27 
68 88 10 13 -1 53 38 22 71 8 29 
53 39 41 38 24 -1 67 41 5 36 88 
47 94 18 80 80 53 -1 95 50 72 62 
80 39 65 18 10 86 87 -1 49 14 48 
86 13 96 35 8 38 59 27 -1 66 50 
67 0 32 71 36 8 21 56 74 -1 56 
91 19 93 1 7 27 32 34 24 87 -1 
